spring_18/ind_study/IWLS18/exps/ets18_exps/tianka_ckt/exp_1/eq/tianka_eq.cnf
p cnf 64 189
-4 -1 -2 0
4 1 -2 0
4 -1 2 0
-4 1 2 0
-5 -1 -2 0
5 1 -2 0
5 -1 2 0
-5 1 2 0
-6 2 3 0
6 -2 0
6 -3 0
-7 2 3 0
7 -2 0
7 -3 0
-8 -3 -3 0
8 3 0
8 3 0
-9 -3 -3 0
9 3 0
9 3 0
10 -6 -3 0
-10 6 0
-10 3 0
7 -61 12 0
7 61 -12 0
-7 -62 12 0
-7 62 -12 0
7 -63 13 0
7 63 -13 0
-7 -64 13 0
-7 64 -13 0
3 -12 11 0
3 12 -11 0
-3 -13 11 0
-3 13 -11 0
-14 4 10 0
14 -4 0
14 -10 0
-15 5 11 0
15 -5 0
15 -11 0
-16 -10 -8 0
16 10 -8 0
16 -10 8 0
-16 10 8 0
-17 -11 -9 0
17 11 -9 0
17 -11 9 0
-17 11 9 0
18 -14 -16 0
-18 14 0
-18 16 0
19 -15 -17 0
-19 15 0
-19 17 0
-20 -18 -19 0
20 18 -19 0
20 -18 19 0
-20 18 19 0
-24 -21 -22 0
24 21 -22 0
24 -21 22 0
-24 21 22 0
-25 -21 -22 0
25 21 -22 0
25 -21 22 0
-25 21 22 0
-26 22 23 0
26 -22 0
26 -23 0
-27 22 23 0
27 -22 0
27 -23 0
-28 -23 -23 0
28 23 0
28 23 0
-29 -23 -23 0
29 23 0
29 23 0
30 -26 -23 0
-30 26 0
-30 23 0
27 -61 32 0
27 61 -32 0
-27 -62 32 0
-27 62 -32 0
27 -63 33 0
27 63 -33 0
-27 -64 33 0
-27 64 -33 0
23 -32 31 0
23 32 -31 0
-23 -33 31 0
-23 33 -31 0
-34 24 30 0
34 -24 0
34 -30 0
-35 25 31 0
35 -25 0
35 -31 0
-36 -30 -28 0
36 30 -28 0
36 -30 28 0
-36 30 28 0
-37 -31 -29 0
37 31 -29 0
37 -31 29 0
-37 31 29 0
38 -34 -36 0
-38 34 0
-38 36 0
39 -35 -37 0
-39 35 0
-39 37 0
-40 -38 -39 0
40 38 -39 0
40 -38 39 0
-40 38 39 0
-44 -41 -42 0
44 41 -42 0
44 -41 42 0
-44 41 42 0
-45 -41 -42 0
45 41 -42 0
45 -41 42 0
-45 41 42 0
-46 42 43 0
46 -42 0
46 -43 0
-47 42 43 0
47 -42 0
47 -43 0
-48 -43 -43 0
48 43 0
48 43 0
-49 -43 -43 0
49 43 0
49 43 0
50 -46 -43 0
-50 46 0
-50 43 0
47 -61 52 0
47 61 -52 0
-47 -62 52 0
-47 62 -52 0
47 -63 53 0
47 63 -53 0
-47 -64 53 0
-47 64 -53 0
43 -52 51 0
43 52 -51 0
-43 -53 51 0
-43 53 -51 0
-54 44 50 0
54 -44 0
54 -50 0
-55 45 51 0
55 -45 0
55 -51 0
-56 -50 -48 0
56 50 -48 0
56 -50 48 0
-56 50 48 0
-57 -51 -49 0
57 51 -49 0
57 -51 49 0
-57 51 49 0
58 -54 -56 0
-58 54 0
-58 56 0
59 -55 -57 0
-59 55 0
-59 57 0
-60 -58 -59 0
60 58 -59 0
60 -58 59 0
-60 58 59 0
-20 0
-40 0
-60 0
-1 0
-2 0
3 0
-21 0
22 0
-23 0
41 0
-42 0
-43 0
